stacscheck/params/Bombastic1_1.param.out
letting moveCol be [1]
letting moveRow be [0]
